
set I := 1	2	3	4	5	6	7	8	9	10	11	12	13	14	15	16	17	18	19	20 ;
set J := 1	2	3	4	5	6	7	8	9	10	11	12	13	14	15	16	17	18	19	20 ;
set S := 1	2	3	4	5 ;
set D := 6	7	8	9	10	11	12	13	14	15	16	17	18	19 ;


#Data_deterministic

param Arc :
	1	2	3	4	5	6	7	8	9	10	11	12	13	14	15	16	17	18	19	20 :=
1	0	0	0	0	0	1	1	1	0	0	1	0	0	0	0	0	0	0	0	0
2	0	0	0	0	0	1	1	1	0	0	1	1	0	0	0	0	0	0	0	0
3	0	0	0	0	0	0	1	1	1	0	0	1	0	0	0	0	0	0	0	0
4	0	0	0	0	0	0	0	1	1	1	0	0	1	0	0	0	0	0	0	0
5	0	0	0	0	0	0	0	0	0	1	0	0	0	1	0	0	0	0	0	0
6	0	0	0	0	0	0	0	0	0	0	1	1	0	0	1	1	0	0	0	0
7	0	0	0	0	0	0	0	0	0	0	1	1	1	0	0	0	0	0	0	0
8	0	0	0	0	0	0	0	0	0	0	0	1	1	0	0	1	1	0	0	0
9	0	0	0	0	0	0	0	0	0	0	0	0	1	1	0	0	0	1	0	0
10	0	0	0	0	0	0	0	0	0	0	0	0	0	1	0	0	0	0	1	0
11	0	0	0	0	0	0	0	0	0	0	0	0	0	0	1	1	0	0	0	0
12	0	0	0	0	0	0	0	0	0	0	0	0	0	0	1	1	1	0	0	0
13	0	0	0	0	0	0	0	0	0	0	0	0	0	0	0	1	1	1	0	0
14	0	0	0	0	0	0	0	0	0	0	0	0	0	0	0	0	1	1	1	0
15	0	0	0	0	0	0	0	0	0	0	0	0	0	0	0	0	0	0	0	1
16	0	0	0	0	0	0	0	0	0	0	0	0	0	0	0	0	0	0	0	1
17	0	0	0	0	0	0	0	0	0	0	0	0	0	0	0	0	0	0	0	1
18	0	0	0	0	0	0	0	0	0	0	0	0	0	0	0	0	0	0	0	1
19	0	0	0	0	0	0	0	0	0	0	0	0	0	0	0	0	0	0	0	1
20	0	0	0	0	0	0	0	0	0	0	0	0	0	0	0	0	0	0	0	0 ;


param Rev :
	1	2	3	4	5	6	7	8	9	10	11	12	13	14	15	16	17	18	19	20 :=
1	0	0	0	0	0	211	243	268	0	0	327	0	0	0	0	0	0	0	0	0
2	0	0	0	0	0	204	190	225	0	0	301	356	0	0	0	0	0	0	0	0
3	0	0	0	0	0	0	198	261	255	0	0	343	0	0	0	0	0	0	0	0
4	0	0	0	0	0	0	0	265	161	264	0	0	360	0	0	0	0	0	0	0
5	0	0	0	0	0	0	0	0	0	267	0	0	0	348	0	0	0	0	0	0
6	0	0	0	0	0	0	0	0	0	0	146	188	0	0	330	352	0	0	0	0
7	0	0	0	0	0	0	0	0	0	0	225	177	348	0	0	0	0	0	0	0
8	0	0	0	0	0	0	0	0	0	0	0	148	284	0	0	312	332	0	0	0
9	0	0	0	0	0	0	0	0	0	0	0	0	317	329	0	0	0	367	0	0
10	0	0	0	0	0	0	0	0	0	0	0	0	0	214	0	0	0	0	326	0
11	0	0	0	0	0	0	0	0	0	0	0	0	0	0	263	285	0	0	0	0
12	0	0	0	0	0	0	0	0	0	0	0	0	0	0	281	242	301	0	0	0
13	0	0	0	0	0	0	0	0	0	0	0	0	0	0	0	277	168	175	0	0
14	0	0	0	0	0	0	0	0	0	0	0	0	0	0	0	0	273	252	252	0
15	0	0	0	0	0	0	0	0	0	0	0	0	0	0	0	0	0	0	0	0
16	0	0	0	0	0	0	0	0	0	0	0	0	0	0	0	0	0	0	0	0
17	0	0	0	0	0	0	0	0	0	0	0	0	0	0	0	0	0	0	0	0
18	0	0	0	0	0	0	0	0	0	0	0	0	0	0	0	0	0	0	0	0
19	0	0	0	0	0	0	0	0	0	0	0	0	0	0	0	0	0	0	0	0
20	0	0	0	0	0	0	0	0	0	0	0	0	0	0	0	0	0	0	0	0 ;


param Cost:
	1	2	3	4	5	6	7	8	9	10	11	12	13	14	15	16	17	18	19	20 :=
1	0	0	0	0	0	67	70	70	0	0	81	0	0	0	0	0	0	0	0	0
2	0	0	0	0	0	73	63	69	0	0	75	95	0	0	0	0	0	0	0	0
3	0	0	0	0	0	0	66	80	73	0	0	85	0	0	0	0	0	0	0	0
4	0	0	0	0	0	0	0	76	60	78	0	0	105	0	0	0	0	0	0	0
5	0	0	0	0	0	0	0	0	0	78	0	0	0	86	0	0	0	0	0	0
6	0	0	0	0	0	0	0	0	0	0	54	61	0	0	86	93	0	0	0	0
7	0	0	0	0	0	0	0	0	0	0	74	63	91	0	0	0	0	0	0	0
8	0	0	0	0	0	0	0	0	0	0	0	51	75	0	0	76	83	0	0	0
9	0	0	0	0	0	0	0	0	0	0	0	0	76	81	0	0	0	103	0	0
10	0	0	0	0	0	0	0	0	0	0	0	0	0	65	0	0	0	0	78	0
11	0	0	0	0	0	0	0	0	0	0	0	0	0	0	93	98	0	0	0	0
12	0	0	0	0	0	0	0	0	0	0	0	0	0	0	99	87	108	0	0	0
13	0	0	0	0	0	0	0	0	0	0	0	0	0	0	0	93	77	78	0	0
14	0	0	0	0	0	0	0	0	0	0	0	0	0	0	0	0	94	87	88	0
15	0	0	0	0	0	0	0	0	0	0	0	0	0	0	0	0	0	0	0	0
16	0	0	0	0	0	0	0	0	0	0	0	0	0	0	0	0	0	0	0	0
17	0	0	0	0	0	0	0	0	0	0	0	0	0	0	0	0	0	0	0	0
18	0	0	0	0	0	0	0	0	0	0	0	0	0	0	0	0	0	0	0	0
19	0	0	0	0	0	0	0	0	0	0	0	0	0	0	0	0	0	0	0	0
20	0	0	0	0	0	0	0	0	0	0	0	0	0	0	0	0	0	0	0	0 ;

param B := 51;

param X_EV :=
1 9.2
2 23.45
3 5.1
4 8.3
5 4.95
;

param X_WS :=
1 9.116
2 22.018
3 5.118
4 9.220
5 5.528
;

param X_RP :=
1 11
2 14
3 8
4 11
5 7
;

#Data_stochastic

#Demand165
param ArcDemand default 0.0 :=
1 11 1
1 6 4
1 7 1
1 8 2
2 11 3
2 6 1
2 12 3
2 7 0
2 8 2
3 7 2
3 12 0
3 8 1
3 9 2
4 8 2
4 13 1
4 9 3
4 10 3
5 14 3
5 10 2
6 11 1
6 15 4
6 16 3
6 12 1
7 11 3
7 12 1
7 13 2
8 12 3
8 16 4
8 17 3
8 13 0
9 13 1
9 18 3
9 14 0
10 14 2
10 19 0
11 15 2
11 16 2
12 15 2
12 16 1
12 17 2
13 16 4
13 17 3
13 18 2
14 17 4
14 18 3
14 19 0
;